POSCAR file written by OVITO Basic 3.7.1
   1.0000000000000000     
    17.6649608600000008    0.0000000000000000    0.0000000000000000
     8.8319152200000008   15.2858494900000004    0.0000000000000000
     0.0000000000000000    0.0000000000000000   70.0000000000000000
   Au   C    H    S 
   10   3    4     2
Selective dynamics
Direct
  0.0000000000000000  0.0000000000000000  0.0000000000000000   F   F   F
  0.1666666585526784  0.0000000000000000  0.0000000000000000   F   F   F
  0.3333333171053496  0.0000000000000000  0.0000000000000000   F   F   F
  0.5000005417504241  0.0000000000000000  0.0000000000000000   F   F   F
  0.6666672003030953  0.0000000000000000  0.0000000000000000   F   F   F
  0.8333338588557737  0.0000000000000000  0.0000000000000000   F   F   F
  0.0000002855291541  0.1666665631940631  0.0000000000000000   F   T   F
  0.1666669440818254  0.1666665631940631  0.0000000000000000   F   F   F
  0.3333336026345037  0.1666665631940631  0.0000000000000000   F   F   F
  0.5000002611871750  0.1666665631940631  0.0000000000000000   F   F   F
  0.6666669197398534  0.1666665631940631  0.0000000000000000   F   F   F
  0.8333335782925317  0.1666665631940631  0.0000000000000000   F   F   F
  0.0000000049659050  0.3333331263881263  0.0000000000000000   F   F   F
  0.1666666635185834  0.3333331263881263  0.0000000000000000   F   F   F
  0.3333338881636507  0.3333331263881263  0.0000000000000000   F   F   F
  0.5000005467163291  0.3333331263881263  0.0000000000000000   F   F   F
  0.6666672052690075  0.3333331263881263  0.0000000000000000   F   F   F
  0.8333338638216787  0.3333331263881263  0.0000000000000000   F   F   F
  0.0000002904950591  0.4999996895821823  0.0000000000000000   F   F   F
 