POSCAR file written by OVITO Basic 3.7.1
   1.0000000000000000     
    17.6649608600000008    0.0000000000000000    0.0000000000000000
     8.8319152200000008   15.2858494900000004    0.0000000000000000
     0.0000000000000000    0.0000000000000000   70.0000000000000000
   Au   C    H    S 
   286    16    16     2
Selective dynamics
Direct
  0.0000000000000000  0.0000000000000000  0.0000000000000000   F   F   F
  0.1666666585526784  0.0000000000000000  0.0000000000000000   F   F   F
  0.3333333171053496  0.0000000000000000  0.0000000000000000   F   F   F
  0.5000005417504241  0.0000000000000000  0.0000000000000000   F   F   F
  0.6666672003030953  0.0000000000000000  0.0000000000000000   F   F   F
  0.8333338588557737  0.0000000000000000  0.0000000000000000   F   F   F
  0.0000002855291541  0.1666665631940631  0.0000000000000000   F   F   F
  0.1666669440818254  0.1666665631940631  0.0000000000000000   F   F   F
  0.3333336026345037  0.1666665631940631  0.0000000000000000   F   F   F
  0.5000002611871750  0.1666665631940631  0.0000000000000000   F   F   F
  0.6666669197398534  0.1666665631940631  0.0000000000000000   F   F   F
  0.8333335782925317  0.1666665631940631  0.0000000000000000   F   F   F
  0.0000000049659050  0.3333331263881263  0.0000000000000000   F   F   F
  0.1666666635185834  0.3333331263881263  0.0000000000000000   F   F   F
  0.3333338881636507  0.3333331263881263  0.0000000000000000   F   F   F
  0.5000005467163291  0.3333331263881263  0.0000000000000000   F   F   F
  0.6666672052690075  0.3333331263881263  0.0000000000000000   F   F   F
  0.8333338638216787  0.3333331263881263  0.0000000000000000   F   F   F
  0.0000002904950591  0.4999996895821823  0.0000000000000000   F   F   F
  0.1666669490477304  0.4999996895821823  0.0000000000000000   F   F   F
  0.3333336076004088  0.4999996895821823  0.0000000000000000   F   F   F
  0.5000002661530871  0.4999996895821823  0.0000000000000000   F   F   F
  0.6666674907981545  0.4999996895821823  0.0000000000000000   F   F   F
  0.8333341493508328  0.4999996895821823  0.0000000000000000   F   F   F
  0.1666669074979055  0.6666669069760687  0.0000000000000000   F   F   F
  0.3333335660505838  0.6666669069760687  0.0000000000000000   F   F   F
  0.5000002246032551  0.6666669069760687  0.0000000000000000   F   F   F
  0.6666668831559335  0.6666669069760687  0.0000000000000000   F   F   F
  0.8333335417086118  0.6666669069760687  0.0000000000000000   F   F   F
  0.9999996341688870  0.6666669069760687  0.0000000000000000   F   F   F
  0.9999999683819851  0.8333334701701318  0.0000000000000000   F   F   F
  0.1666666269346635  0.8333334701701318  0.0000000000000000   F   F   F
  0.3333332854873348  0.8333334701701318  0.0000000000000000   F   F   F
  0.4999999440400131  0.8333334701701318  0.0000000000000000   F   F   F
  0.6666671686850805  0.8333334701701318  0.0000000000000000   F   F   F
  0.8333338272377588  0.8333334701701318  0.0000000000000000   F   F   F
  0.0555573924484918  0.0555520319989782  0.0341618571428555   F   F   F
  0.2222240510011702  0.0555520319989782  0.0341618571428555   F   F   F
  0.3888912756462446  0.0555520319989782  0.0341618571428555   F   F   F
  0.5555579341989159  0.0555520319989782  0.0341618571428555   F   F   F
  0.7222245927515942  0.0555520319989782  0.0341618571428555   F   F   F
  0.8888912513042655  0.0555520319989782  0.0341618571428555   F   F   F
  0.0555576779776459  0.2222185951930342  0.0341618571428555   F   F   F
  0.2222243365303243  0.2222185951930342  0.0341618571428555   F   F   F
  0.3888909950829955  0.2222185951930342  0.0341618571428555   F   F   F
  0.5555576536356739  0.2222185951930342  0.0341618571428555   F   F   F
  0.7222248782807412  0.2222185951930342  0.0341618571428555   F   F   F
  0.8888915368334196  0.2222185951930342  0.0341618571428555   F   F   F
  0.0555570703354249  0.3888858125869206  0.0341618571428555   F   F   F
  0.2222242949804922  0.3888858125869206  0.0341618571428555   F   F   F
  0.3888909535331706  0.3888858125869206  0.0341618571428555   F   F   F
  0.5555576120858419  0.3888858125869206  0.0341618571428555   F   F   F
  0.7222242706385202  0.3888858125869206  0.0341618571428555   F   F   F
  0.8888909291911986  0.3888858125869206  0.0341618571428555   F   F   F
  0.0555573558645719  0.5555523757809837  0.0341618571428555   F   F   F
  0.2222240144172503  0.5555523757809837  0.0341618571428555   F   F   F
  0.3888906729699286  0.5555523757809837  0.0341618571428555   F   F   F
  0.5555578976149960  0.5555523757809837  0.0341618571428555   F   F   F
  0.7222245561676743  0.5555523757809837  0.0341618571428555   F   F   F
  0.8888912147203456  0.5555523757809837  0.0341618571428555   F   F   F
  0.0555576413937260  0.7222189389750397  0.0341618571428555   F   F   F
  0.2222242999463973  0.7222189389750397  0.0341618571428555   F   F   F
  0.3888909584990756  0.7222189389750397  0.0341618571428555   F   F   F
  0.5555576170517540  0.7222189389750397  0.0341618571428555   F   F   F
  0.7222242756044253  0.7222189389750397  0.0341618571428555   F   F   F
  0.8888915002494997  0.7222189389750397  0.0341618571428555   F   F   F
  0.0555573608304840  0.8888855021691029  0.0341618571428555   F   F   F
  0.2222240193831553  0.8888855021691029  0.0341618571428555   F   F   F
  0.3888912440282297  0.8888855021691029  0.0341618571428555   F   F   F
  0.5555579025809010  0.8888855021691029  0.0341618571428555   F   F   F
  0.7222245611335794  0.8888855021691029  0.0341618571428555   F   F   F
  0.8888912196862577  0.8888855021691029  0.0341618571428555   F   F   F
  0.6168801653474855  0.2669649886283025  0.0673413100744016   T   T   T
  0.2672224479483741  0.6166230570718463  0.0673523788241911   T   T   T
  0.7826756371535023  0.2667883915704332  0.0673075023216930   T   T   T
  0.2668747163285850  0.7824422214592416  0.0673130779079524   T   T   T
  0.6169707688852041  0.7831679532640418  0.0671177469411366   T   T   T
  0.7833751724443200  0.6167109955821010  0.0671404142852396   T   T   T
  0.4431122467593516  0.7802492729320935  0.0663164885991249   T   T   T
  0.7805009178905454  0.4429161698086929  0.0663443308196505   T   T   T
  0.4490267895456806  0.2699438130910168  0.0673345377710156   T   T   T
  0.4435046185753981  0.4431608507163549  0.0664095398864365   T   T   T
  0.2701665956470666  0.4488213565495607  0.0673620428271028   T   T   T
  0.2693876829415287  0.9481452913925142  0.0671831997337407   T   T   T
  0.9482214678466937  0.2693994042777301  0.0672312053730109   T   T   T
  0.4485707511970796  0.9488604836234865  0.0671451252466706   T   T   T
  0.6127360541850975  0.6124836919053930  0.0663833212272410   T   T   T
  0.9490009335625403  0.4484238231306337  0.0671989843906717   T   T   T
  0.4416419605628367  0.6124737541043226  0.0664234100634826   T   T   T
  0.6127175938940086  0.4414612815973299  0.0664298925582790   T   T   T
  0.7791450950998857  0.9437251422112293  0.0678840714790308   T   T   T
  0.9438423813016146  0.7790215329529526  0.0678935683672033   T   T   T
  0.9438060321679046  0.9437048495034106  0.0678800884340209   T   T   T
  0.1108525896139749  0.1108388321063032  0.0675993599630509   T   T   T
  0.4449946160102290  0.1113232444696177  0.0676023357662396   T   T   T
  0.1114890263312578  0.4448036733806613  0.0676040032056053   T   T   T
  0.7811395356629124  0.1042449561060795  0.0679640995836194   T   T   T
  0.1043433558054221  0.7809981386652740  0.0679614309861881   T   T   T
  0.7813598244052354  0.7811637089597938  0.0679875111132125   T   T   T
  0.2778160309823740  0.2776589374392566  0.0691276140483750   T   T   T
  0.2768954463996715  0.1131489003028620  0.0687885196850852   T   T   T
  0.6140734895482846  0.1063140464165677  0.0680595748699849   T   T   T
  0.1064688492496827  0.6138973841265231  0.0680491700413735   T   T   T
  0.9467626262144133  0.6138935521828840  0.0680624545415523   T   T   T
  0.9463958408787142  0.1061182792074948  0.0680561996579142   T   T   T
  0.6140594871340082  0.9465894394073613  0.0680692118491621   T   T   T
  0.1061981499587770  0.9462791981964497  0.0680587845927618   T   T   T
  0.1130139727054277  0.2770121631613609  0.0688455213827772   T   T   T
  0.3415682409692441  0.3410200587173750  0.0992601485240718   T   T   T
  0.5100755521971532  0.3258370640820482  0.0990138439564729   T   T   T
  0.3265602672926169  0.5095162178877637  0.0990140699497732   T   T   T
  0.3251923869821845  0.8317960093569204  0.0987308827626654   T   T   T
  0.5093627118996594  0.8332994228728711  0.0984853761030493   T   T   T
  0.3391579420160848  0.9875087462456412  0.0986706176813716   T   T   T
  0.8320714395976495  0.3247656488020049  0.0988166901405518   T   T   T
  0.8332099941405430  0.5091325880418628  0.0985635243788638   T   T   T
  0.9871457161607045  0.3392376006665853  0.0988104611762178   T   T   T
  0.3226494873164300  0.6718744937686804  0.0990590142086924   T   T   T
  0.6721861723669359  0.3223338560838615  0.0990316343778129   T   T   T
  0.6732649436802332  0.6730298858108856  0.0986335235524182   T   T   T
  0.5002939886228275  0.6671659355020928  0.0983812541297731   T   T   T
  0.5006867854855305  0.4999883951271987  0.0985885853664538   T   T   T
  0.6676123700120385  0.4999244761367134  0.0984297011501085   T   T   T
  0.3974958547052266  0.3965162362646248  0.1302152801946936   T   T   T
  0.3954069573520594  0.8762707523847597  0.1292738552981180   T   T   T
  0.8756504409845246  0.3956650445224416  0.1294544765356833   T   T   T
  0.5658354639253657  0.3778213499319957  0.1310568115543888   T   T   T
  0.3790990516517773  0.5650688306803332  0.1310123957289484   T   T   T
  0.3785397573695536  0.7237630387304516  0.1306763193086448   T   T   T
  0.7243442763454971  0.3773048855405294  0.1307560174864008   T   T   T
  0.5660197042523630  0.7266554060955493  0.1301305246675873   T   T   T
  0.7263322726873633  0.5662369231271680  0.1302276421145037   T   T   T
  0.5570189866235635  0.5565125032863313  0.1304084144520503   T   T   T
  0.4506246454060694  0.4503310543696971  0.1618816277219749   T   T   T
  0.7692885633386091  0.4500076958607261  0.1607305321536941   T   T   T
  0.4492606763745046  0.7703397806844208  0.1605687344496424   T   T   T
  0.4361573176452600  0.6162112638470678  0.1627158551645929   T   T   T
  0.6165939208465377  0.4352186236871824  0.1626553662505651   T   T   T
  0.6199723217561968  0.6210893878981215  0.1615189638889752   T   T   T
  0.4985220423798283  0.5064229335173436  0.1946081583543509   T   T   T
  0.6669328362103979  0.5050445088100819  0.1920229102377170   T   T   T
  0.5036003634127387  0.6696066634736151  0.1919942289845048   T   T   T
  0.5706852333163511  0.5762065434938715  0.2236810753425006   T   T   T
  0.5539293115882290  0.5509289097687693  0.4378159327567279   T   T   T
  0.6096351159350379  0.4451110226367526  0.4699203471607903   T   T   T
  0.4484438966606586  0.6074411509342716  0.4696034339066290   T   T   T
  0.6087400622720365  0.6070954270160588  0.4695290715382140   T   T   T
  0.4913796320877589  0.6825753081413665  0.4998181903796350   T   T   T
  0.4917543960339555  0.4905449298131586  0.5000206525978215   T   T   T
  0.6840487658046442  0.4898847126459940  0.4998470144538799   T   T   T
  0.6622579843409192  0.3415209314526559  0.5011976636883030   T   T   T
  0.3435908149307311  0.6607141519153664  0.5009014207743964   T   T   T
  0.6614326396121590  0.6601276935649691  0.5007670471556340   T   T   T
  0.5557937792761120  0.5547988312290725  0.5312035026915602   T   T   T
  0.3863888857277243  0.7339698625387252  0.5315045294412589   T   T   T
  0.3863648042131861  0.5452713712476774  0.5315926673742406   T   T   T
  0.7350779245740603  0.3853407930812067  0.5316264717631959   T   T   T
  0.5458970175229815  0.3854712614159582  0.5316687195294849   T   T   T
  0.5457199407456932  0.7337933069505196  0.5314483489793206   T   T   T
  0.7346405299729684  0.5449381534498672  0.5314811410191258   T   T   T
  0.7155461742882483  0.2352211674872490  0.5326157053602388   T   T   T
  0.2363718909680803  0.7148507463283220  0.5323655665269735   T   T   T
  0.7146929062401174  0.7144530882207759  0.5322506655509215   T   T   T
  0.6111536805852377  0.6105942344461359  0.5634850746487594   T   T   T
  0.4447897798520482  0.6105966144565498  0.5635115723774370   T   T   T
  0.4388305396841344  0.7887841135027106  0.5631922135858195   T   T   T
  0.6113318741609751  0.4439573222644058  0.5635255542454530   T   T   T
  0.7895203998967114  0.4382952309538057  0.5632398648358187   T   T   T
  0.4386500251851304  0.4383490322806677  0.5632819044501612   T   T   T
  0.1247525833440745  0.7709172064377806  0.5631143500522463   T   T   T
  0.2791412149567087  0.7856260862167684  0.5633081557252445   T   T   T
  0.7713820495960387  0.1237688373244979  0.5632889257341555   T   T   T
  0.2789561215692946  0.6015685008255667  0.5633333139768776   T   T   T
  0.7705829661442551  0.7705799362987842  0.5630215861037876   T   T   T
  0.7865432486891194  0.2782248030985721  0.5634130221483484   T   T   T
  0.6017407801713615  0.2782830075456031  0.5634289679827450   T   T   T
  0.6016049677179467  0.7855596522316287  0.5632641423859994   T   T   T
  0.7859003659826215  0.6014026695074614  0.5632645155674569   T   T   T
  0.9985608405332489  0.8337732815376295  0.5931289457350538   T   T   T
  0.0050705623762840  0.1645088583999381  0.5939903500770990   T   T   T
  0.4970503299523205  0.1644805736404165  0.5939906763669085   T   T   T
  0.0050085869864072  0.4969831801706030  0.5939949695333516   T   T   T
  0.1646427781470822  0.4969606055823664  0.5939900762153637   T   T   T
  0.8343517811099879  0.9978478681771001  0.5932105940803184   T   T   T
  0.1646983391716351  0.0048681181720548  0.5939988116885501   T   T   T
  0.4970076884562198  0.0048397646765067  0.5940010413310102   T   T   T
  0.8339661761416430  0.8336421777683827  0.5930726796933365   T   T   T
  0.3299100845789871  0.3298327161119668  0.5940611218674748   T   T   T
  0.0068568735452817  0.3298631777485466  0.5940655304983818   T   T   T
  0.3299636427207201  0.0066107050675967  0.5940503564258657   T   T   T
  0.0001860680138565  0.6661301764152997  0.5944384412564433   T   T   T
  0.6662776546213806 -0.0000670115027049  0.5944366323637166   T   T   T
  0.0003631166463526 -0.0000372215142988  0.5944368853818904   T   T   T
  0.1673625712432418  0.3319040189994547  0.5941668859838652   T   T   T
  0.3320134151862597  0.1672164789803331  0.5941699492437241   T   T   T
  0.1673756901817329  0.1672232573720458  0.5941702870444567   T   T   T
  0.4986278354219710  0.6694262406773084  0.5956326809947768   T   T   T
  0.6696822839546575  0.4983470805413180  0.5956320005765701   T   T   T
  0.1627145174840848  0.6623233829890958  0.5948164210960639   T   T   T
  0.4986988823438964  0.4983366036582670  0.5956388561702601   T   T   T
  0.6624267696030084  0.1624174032908912  0.5948834993267617   T   T   T
  0.8414727966403774  0.6622949654810101  0.5947877490567638   T   T   T
  0.8417636246819132  0.1624274422151240  0.5948813959314261   T   T   T
  0.1628736942413876  0.8413750313634083  0.5948117134006696   T   T   T
  0.6623274905614445  0.8413393518756955  0.5947879095074949   T   T   T
  0.6679035455952113  0.6676862942434024  0.5956889267847425   T   T   T
  0.3310662508984320  0.6676615279746462  0.5957064061752615   T   T   T
  0.6679903002967029  0.3306922169863225  0.5957152865787423   T   T   T
  0.3280645157728376  0.4942229458091558  0.5948315673801964   T   T   T
  0.4942212452385237  0.3279877026980415  0.5948557094843520   T   T   T
  0.8443262526871287  0.4942237319060939  0.5948028550087295   T   T   T
  0.8444196745679866  0.3280030403612695  0.5948396226786403   T   T   T
  0.3282147638492839  0.8440732362861448  0.5947995176036281   T   T   T
  0.4943199744298686  0.8440530202143572  0.5947870286155489   T   T   T
  0.0555847538338696  0.0555029670124014  0.6279041428571404   F   F   F
  0.2222514123865409  0.0555029670124014  0.6279041428571404   F   F   F
  0.3889175048468232  0.0555029670124014  0.6279041428571404   F   F   F
  0.5555841633995016  0.0555029670124014  0.6279041428571404   F   F   F
  0.7222508219521728  0.0555029670124014  0.6279041428571404   F   F   F
  0.8889180465972473  0.0555029670124014  0.6279041428571404   F   F   F
  0.0555844732706205  0.2221695302064646  0.6279041428571404   F   F   F
  0.2222511318232989  0.2221695302064646  0.6279041428571404   F   F   F
  0.3889177903759773  0.2221695302064646  0.6279041428571404   F   F   F
  0.5555844489286486  0.2221695302064646  0.6279041428571404   F   F   F
  0.7222511074813269  0.2221695302064646  0.6279041428571404   F   F   F
  0.8889177660340053  0.2221695302064646  0.6279041428571404   F   F   F
  0.0555847587997746  0.3888360934005277  0.6279041428571404   F   F   F
  0.2222514173524530  0.3888360934005277  0.6279041428571404   F   F   F
  0.3889180759051243  0.3888360934005277  0.6279041428571404   F   F   F
  0.5555847344578027  0.3888360934005277  0.6279041428571404   F   F   F
  0.7222513930104810  0.3888360934005277  0.6279041428571404   F   F   F
  0.8889180515631523  0.3888360934005277  0.6279041428571404   F   F   F
  0.0555841511575537  0.5555033107944070  0.6279041428571404   F   F   F
  0.2222508097102249  0.5555033107944070  0.6279041428571404   F   F   F
  0.3889174682629033  0.5555033107944070  0.6279041428571404   F   F   F
  0.5555841268155817  0.5555033107944070  0.6279041428571404   F   F   F
  0.7222507853682529  0.5555033107944070  0.6279041428571404   F   F   F
  0.8889174439209313  0.5555033107944070  0.6279041428571404   F   F   F
  0.0555844366867007  0.7221698739884701  0.6279041428571404   F   F   F
  0.2222510952393790  0.7221698739884701  0.6279041428571404   F   F   F
  0.3889177537920574  0.7221698739884701  0.6279041428571404   F   F   F
  0.5555844123447287  0.7221698739884701  0.6279041428571404   F   F   F
  0.7222510708974070  0.7221698739884701  0.6279041428571404   F   F   F
  0.8889177294500783  0.7221698739884701  0.6279041428571404   F   F   F
  0.0555841561234587  0.8888364371825332  0.6279041428571404   F   F   F
  0.2222508146761371  0.8888364371825332  0.6279041428571404   F   F   F
  0.3889174732288083  0.8888364371825332  0.6279041428571404   F   F   F
  0.5555841317814867  0.8888364371825332  0.6279041428571404   F   F   F
  0.7222507903341651  0.8888364371825332  0.6279041428571404   F   F   F
  0.8889174488868363  0.8888364371825332  0.6279041428571404   F   F   F
  0.1111421462823614  0.1110549990113796  0.6620660000000029   F   F   F
  0.2778088048350398  0.1110549990113796  0.6620660000000029   F   F   F
  0.4444754633877110  0.1110549990113796  0.6620660000000029   F   F   F
  0.6111421219403894  0.1110549990113796  0.6620660000000029   F   F   F
  0.7778087804930678  0.1110549990113796  0.6620660000000029   F   F   F
  0.9444754390457391  0.1110549990113796  0.6620660000000029   F   F   F
  0.1111415386401404  0.2777222164052588  0.6620660000000029   F   F   F
  0.2778081971928188  0.2777222164052588  0.6620660000000029   F   F   F
  0.4444748557454901  0.2777222164052588  0.6620660000000029   F   F   F
  0.6111415142981684  0.2777222164052588  0.6620660000000029   F   F   F
  0.7778081728508397  0.2777222164052588  0.6620660000000029   F   F   F
  0.9444748314035181  0.2777222164052588  0.6620660000000029   F   F   F
  0.1111418241692945  0.4443887795993220  0.6620660000000029   F   F   F
  0.2778084827219658  0.4443887795993220  0.6620660000000029   F   F   F
  0.4444751412746442  0.4443887795993220  0.6620660000000029   F   F   F
  0.6111417998273154  0.4443887795993220  0.6620660000000029   F   F   F
  0.7778084583799938  0.4443887795993220  0.6620660000000029   F   F   F
  0.9444751169326722  0.4443887795993220  0.6620660000000029   F   F   F
  0.1111415436060454  0.6110553427933851  0.6620660000000029   F   F   F
  0.2778082021587238  0.6110553427933851  0.6620660000000029   F   F   F
  0.4444748607113951  0.6110553427933851  0.6620660000000029   F   F   F
  0.6111415192640735  0.6110553427933851  0.6620660000000029   F   F   F
  0.7778081778167518  0.6110553427933851  0.6620660000000029   F   F   F
  0.9444748363694231  0.6110553427933851  0.6620660000000029   F   F   F
  0.1111418291351995  0.7777219059874412  0.6620660000000029   F   F   F
  0.2778084876878708  0.7777219059874412  0.6620660000000029   F   F   F
  0.4444751462405492  0.7777219059874412  0.6620660000000029   F   F   F
  0.6111418047932275  0.7777219059874412  0.6620660000000029   F   F   F
  0.7778084633458988  0.7777219059874412  0.6620660000000029   F   F   F
  0.9444751218985772  0.7777219059874412  0.6620660000000029   F   F   F
  0.1111415485719576  0.9443884691815043  0.6620660000000029   F   F   F
  0.2778087732170249  0.9443884691815043  0.6620660000000029   F   F   F
  0.4444754317697033  0.9443884691815043  0.6620660000000029   F   F   F
  0.6111415242299785  0.9443884691815043  0.6620660000000029   F   F   F
  0.7778081827826568  0.9443884691815043  0.6620660000000029   F   F   F
  0.9444754074277242  0.9443884691815043  0.6620660000000029   F   F   F

  0.00000000E+00  0.00000000E+00  0.00000000E+00
  0.00000000E+00  0.00000000E+00  0.00000000E+00
  0.00000000E+00  0.00000000E+00  0.00000000E+00
  0.00000000E+00  0.00000000E+00  0.00000000E+00
  0.00000000E+00  0.00000000E+00  0.00000000E+00
  0.00000000E+00  0.00000000E+00  0.00000000E+00
  0.00000000E+00  0.00000000E+00  0.00000000E+00
  0.00000000E+00  0.00000000E+00  0.00000000E+00
  0.00000000E+00  0.00000000E+00  0.00000000E+00
  0.00000000E+00  0.00000000E+00  0.00000000E+00
  0.00000000E+00  0.00000000E+00  0.00000000E+00
  0.00000000E+00  0.00000000E+00  0.00000000E+00
  0.00000000E+00  0.00000000E+00  0.00000000E+00
  0.00000000E+00  0.00000000E+00  0.00000000E+00
  0.00000000E+00  0.00000000E+00  0.00000000E+00
  0.00000000E+00  0.00000000E+00  0.00000000E+00
  0.00000000E+00  0.00000000E+00  0.00000000E+00
  0.00000000E+00  0.00000000E+00  0.00000000E+00
  0.00000000E+00  0.00000000E+00  0.00000000E+00
  0.00000000E+00  0.00000000E+00  0.00000000E+00
  0.00000000E+00  0.00000000E+00  0.00000000E+00
  0.00000000E+00  0.00000000E+00  0.00000000E+00
  0.00000000E+00  0.00000000E+00  0.00000000E+00
  0.00000000E+00  0.00000000E+00  0.00000000E+00
  0.00000000E+00  0.00000000E+00  0.00000000E+00
  0.00000000E+00  0.00000000E+00  0.00000000E+00
  0.00000000E+00  0.00000000E+00  0.00000000E+00
  0.00000000E+00  0.00000000E+00  0.00000000E+00
  0.00000000E+00  0.00000000E+00  0.00000000E+00
  0.00000000E+00  0.00000000E+00  0.00000000E+00
  0.00000000E+00  0.00000000E+00  0.00000000E+00
  0.00000000E+00  0.00000000E+00  0.00000000E+00
  0.00000000E+00  0.00000000E+00  0.00000000E+00
  0.00000000E+00  0.00000000E+00  0.00000000E+00
  0.00000000E+00  0.00000000E+00  0.00000000E+00
  0.00000000E+00  0.00000000E+00  0.00000000E+00
  0.00000000E+00  0.00000000E+00  0.00000000E+00
  0.00000000E+00  0.00000000E+00  0.00000000E+00
  0.00000000E+00  0.00000000E+00  0.00000000E+00
  0.00000000E+00  0.00000000E+00  0.00000000E+00
  0.00000000E+00  0.00000000E+00  0.00000000E+00
  0.00000000E+00  0.00000000E+00  0.00000000E+00
  0.00000000E+00  0.00000000E+00  0.00000000E+00
  0.00000000E+00  0.00000000E+00  0.00000000E+00
  0.00000000E+00  0.00000000E+00  0.00000000E+00
  0.00000000E+00  0.00000000E+00  0.00000000E+00
  0.00000000E+00  0.00000000E+00  0.00000000E+00
  0.00000000E+00  0.00000000E+00  0.00000000E+00
  0.00000000E+00  0.00000000E+00  0.00000000E+00
  0.00000000E+00  0.00000000E+00  0.00000000E+00
  0.00000000E+00  0.00000000E+00  0.00000000E+00
  0.00000000E+00  0.00000000E+00  0.00000000E+00
  0.00000000E+00  0.00000000E+00  0.00000000E+00
  0.00000000E+00  0.00000000E+00  0.00000000E+00
  0.00000000E+00  0.00000000E+00  0.00000000E+00
  0.00000000E+00  0.00000000E+00  0.00000000E+00
  0.00000000E+00  0.00000000E+00  0.00000000E+00
  0.00000000E+00  0.00000000E+00  0.00000000E+00
  0.00000000E+00  0.00000000E+00  0.00000000E+00
  0.00000000E+00  0.00000000E+00  0.00000000E+00
  0.00000000E+00  0.00000000E+00  0.00000000E+00
  0.00000000E+00  0.00000000E+00  0.00000000E+00
  0.00000000E+00  0.00000000E+00  0.00000000E+00
  0.00000000E+00  0.00000000E+00  0.00000000E+00
  0.00000000E+00  0.00000000E+00  0.00000000E+00
  0.00000000E+00  0.00000000E+00  0.00000000E+00
  0.00000000E+00  0.00000000E+00  0.00000000E+00
  0.00000000E+00  0.00000000E+00  0.00000000E+00
  0.00000000E+00  0.00000000E+00  0.00000000E+00
  0.00000000E+00  0.00000000E+00  0.00000000E+00
  0.00000000E+00  0.00000000E+00  0.00000000E+00
  0.00000000E+00  0.00000000E+00  0.00000000E+00
  0.00000000E+00  0.00000000E+00  0.00000000E+00
  0.00000000E+00  0.00000000E+00  0.00000000E+00
  0.00000000E+00  0.00000000E+00  0.00000000E+00
  0.00000000E+00  0.00000000E+00  0.00000000E+00
  0.00000000E+00  0.00000000E+00  0.00000000E+00
  0.00000000E+00  0.00000000E+00  0.00000000E+00
  0.00000000E+00  0.00000000E+00  0.00000000E+00
  0.00000000E+00  0.00000000E+00  0.00000000E+00
  0.00000000E+00  0.00000000E+00  0.00000000E+00
  0.00000000E+00  0.00000000E+00  0.00000000E+00
  0.00000000E+00  0.00000000E+00  0.00000000E+00
  0.00000000E+00  0.00000000E+00  0.00000000E+00
  0.00000000E+00  0.00000000E+00  0.00000000E+00
  0.00000000E+00  0.00000000E+00  0.00000000E+00
  0.00000000E+00  0.00000000E+00  0.00000000E+00
  0.00000000E+00  0.00000000E+00  0.00000000E+00
  0.00000000E+00  0.00000000E+00  0.00000000E+00
  0.00000000E+00  0.00000000E+00  0.00000000E+00
  0.00000000E+00  0.00000000E+00  0.00000000E+00
  0.00000000E+00  0.00000000E+00  0.00000000E+00
  0.00000000E+00  0.00000000E+00  0.00000000E+00
  0.00000000E+00  0.00000000E+00  0.00000000E+00
  0.00000000E+00  0.00000000E+00  0.00000000E+00
  0.00000000E+00  0.00000000E+00  0.00000000E+00
  0.00000000E+00  0.00000000E+00  0.00000000E+00
  0.00000000E+00  0.00000000E+00  0.00000000E+00
  0.00000000E+00  0.00000000E+00  0.00000000E+00
  0.00000000E+00  0.00000000E+00  0.00000000E+00
  0.00000000E+00  0.00000000E+00  0.00000000E+00
  0.00000000E+00  0.00000000E+00  0.00000000E+00
  0.00000000E+00  0.00000000E+00  0.00000000E+00
  0.00000000E+00  0.00000000E+00  0.00000000E+00
  0.00000000E+00  0.00000000E+00  0.00000000E+00
  0.00000000E+00  0.00000000E+00  0.00000000E+00
  0.00000000E+00  0.00000000E+00  0.00000000E+00
  0.00000000E+00  0.00000000E+00  0.00000000E+00
  0.00000000E+00  0.00000000E+00  0.00000000E+00
  0.00000000E+00  0.00000000E+00  0.00000000E+00
  0.00000000E+00  0.00000000E+00  0.00000000E+00
  0.00000000E+00  0.00000000E+00  0.00000000E+00
  0.00000000E+00  0.00000000E+00  0.00000000E+00
  0.00000000E+00  0.00000000E+00  0.00000000E+00
  0.00000000E+00  0.00000000E+00  0.00000000E+00
  0.00000000E+00  0.00000000E+00  0.00000000E+00
  0.00000000E+00  0.00000000E+00  0.00000000E+00
  0.00000000E+00  0.00000000E+00  0.00000000E+00
  0.00000000E+00  0.00000000E+00  0.00000000E+00
  0.00000000E+00  0.00000000E+00  0.00000000E+00
  0.00000000E+00  0.00000000E+00  0.00000000E+00
  0.00000000E+00  0.00000000E+00  0.00000000E+00
  0.00000000E+00  0.00000000E+00  0.00000000E+00
  0.00000000E+00  0.00000000E+00  0.00000000E+00
  0.00000000E+00  0.00000000E+00  0.00000000E+00
  0.00000000E+00  0.00000000E+00  0.00000000E+00
  0.00000000E+00  0.00000000E+00  0.00000000E+00
  0.00000000E+00  0.00000000E+00  0.00000000E+00
  0.00000000E+00  0.00000000E+00  0.00000000E+00
  0.00000000E+00  0.00000000E+00  0.00000000E+00
  0.00000000E+00  0.00000000E+00  0.00000000E+00
  0.00000000E+00  0.00000000E+00  0.00000000E+00
  0.00000000E+00  0.00000000E+00  0.00000000E+00
  0.00000000E+00  0.00000000E+00  0.00000000E+00
  0.00000000E+00  0.00000000E+00  0.00000000E+00
  0.00000000E+00  0.00000000E+00  0.00000000E+00
  0.00000000E+00  0.00000000E+00  0.00000000E+00
  0.00000000E+00  0.00000000E+00  0.00000000E+00
  0.00000000E+00  0.00000000E+00  0.00000000E+00
  0.00000000E+00  0.00000000E+00  0.00000000E+00
  0.00000000E+00  0.00000000E+00  0.00000000E+00
  0.00000000E+00  0.00000000E+00  0.00000000E+00
  0.00000000E+00  0.00000000E+00  0.00000000E+00
  0.00000000E+00  0.00000000E+00  0.00000000E+00
  0.00000000E+00  0.00000000E+00  0.00000000E+00
  0.00000000E+00  0.00000000E+00  0.00000000E+00
  0.00000000E+00  0.00000000E+00  0.00000000E+00
  0.00000000E+00  0.00000000E+00  0.00000000E+00
  0.00000000E+00  0.00000000E+00  0.00000000E+00
  0.00000000E+00  0.00000000E+00  0.00000000E+00
  0.00000000E+00  0.00000000E+00  0.00000000E+00
  0.00000000E+00  0.00000000E+00  0.00000000E+00
  0.00000000E+00  0.00000000E+00  0.00000000E+00
  0.00000000E+00  0.00000000E+00  0.00000000E+00
  0.00000000E+00  0.00000000E+00  0.00000000E+00
  0.00000000E+00  0.00000000E+00  0.00000000E+00
  0.00000000E+00  0.00000000E+00  0.00000000E+00
  0.00000000E+00  0.00000000E+00  0.00000000E+00
  0.00000000E+00  0.00000000E+00  0.00000000E+00
  0.00000000E+00  0.00000000E+00  0.00000000E+00
  0.00000000E+00  0.00000000E+00  0.00000000E+00
  0.00000000E+00  0.00000000E+00  0.00000000E+00
  0.00000000E+00  0.00000000E+00  0.00000000E+00
  0.00000000E+00  0.00000000E+00  0.00000000E+00
  0.00000000E+00  0.00000000E+00  0.00000000E+00
  0.00000000E+00  0.00000000E+00  0.00000000E+00
  0.00000000E+00  0.00000000E+00  0.00000000E+00
  0.00000000E+00  0.00000000E+00  0.00000000E+00
  0.00000000E+00  0.00000000E+00  0.00000000E+00
  0.00000000E+00  0.00000000E+00  0.00000000E+00
  0.00000000E+00  0.00000000E+00  0.00000000E+00
  0.00000000E+00  0.00000000E+00  0.00000000E+00
  0.00000000E+00  0.00000000E+00  0.00000000E+00
  0.00000000E+00  0.00000000E+00  0.00000000E+00
  0.00000000E+00  0.00000000E+00  0.00000000E+00
  0.00000000E+00  0.00000000E+00  0.00000000E+00
  0.00000000E+00  0.00000000E+00  0.00000000E+00
  0.00000000E+00  0.00000000E+00  0.00000000E+00
  0.00000000E+00  0.00000000E+00  0.00000000E+00